NAME : random86.729.tour
COMMENT : Length = 729
COMMENT : Found by LKH [Keld Helsgaun] Mon Dec 30 21:03:59 2024
TYPE : TOUR
DIMENSION : 86
TOUR_SECTION
1
31
50
61
52
42
17
9
15
8
69
27
32
51
49
36
37
59
47
12
23
39
67
20
83
26
33
44
46
62
35
5
22
70
56
60
73
19
78
7
25
54
66
53
21
82
57
63
30
80
10
34
84
79
6
65
74
72
2
14
71
55
3
11
16
58
28
85
77
81
13
48
86
76
4
43
18
68
40
24
41
64
45
38
29
75
-1
EOF
